proyfinal/src/viki/013/experimentInOfficeAgust.take6.output/2901ebb4-8ccf-4cdb-a63d-2abc9a23d514.als.dat
{'cnf.clauses': '118081',
 'cnf.totvars': '69608',
 'conflict literals': '9454',
 'conflicts': '601',
 'decisions': '8855',
 'memused.mb': '17.20',
 'outcome': 'UNSAT',
 'propagations': '918349',
 'restarts': '5',
 'solver.msecs': 85,
 'task.msecs': 139}
